p wcnf 183 215 216 
1 -15 167 0 
1 -66 146 0 
1 -146 4 0 
1 182 -80 0 
1 -124 130 0 
1 -35 -95 0 
1 181 -125 0 
1 -22 167 0 
1 -132 -164 0 
1 101 -123 0 
1 104 -42 0 
1 -58 -89 0 
1 -6 60 0 
1 -67 169 0 
1 -155 -90 0 
1 -180 -8 0 
1 158 94 0 
1 63 6 0 
1 -65 82 0 
1 -56 -77 0 
1 -178 14 0 
1 -29 -105 0 
1 76 -58 0 
1 37 79 0 
1 11 42 0 
1 3 160 0 
1 153 -85 0 
1 -88 39 0 
1 93 -125 0 
1 19 142 0 
1 142 -179 0 
1 -73 -173 0 
1 102 47 0 
1 166 -71 0 
1 102 -31 0 
1 -115 126 0 
1 161 117 0 
1 -27 50 0 
1 -97 42 0 
1 172 -97 0 
1 80 -89 0 
1 82 -115 0 
1 163 147 0 
1 9 139 0 
1 133 -142 0 
1 168 -128 0 
1 -168 43 0 
1 96 -166 0 
1 142 27 0 
1 22 -73 0 
1 176 124 0 
1 68 158 0 
1 -148 -166 0 
1 92 130 0 
1 116 -139 0 
1 -62 -115 0 
1 111 -178 0 
1 74 -81 0 
1 109 173 0 
1 -168 73 0 
1 55 173 0 
1 -57 -96 0 
1 90 -29 0 
1 63 3 0 
1 -119 -161 0 
1 122 -11 0 
1 -91 101 0 
1 -155 -119 0 
1 123 -132 0 
1 67 -47 0 
1 -26 -54 0 
1 -172 -138 0 
1 -78 171 0 
1 -56 -147 0 
1 113 -183 0 
1 29 -23 0 
1 -13 -148 0 
1 126 79 0 
1 45 -168 0 
1 76 -94 0 
1 -182 122 0 
1 55 137 0 
1 -72 148 0 
1 -54 15 0 
1 121 116 0 
1 -128 -177 0 
1 -33 -53 0 
1 97 -29 0 
1 36 89 0 
1 88 -111 0 
1 176 31 0 
1 -55 67 0 
1 -105 -172 0 
1 -166 -86 0 
1 91 -38 0 
1 -138 79 0 
1 155 -159 0 
1 -39 -6 0 
1 -15 109 0 
1 -176 -124 0 
1 -180 55 0 
1 -121 28 0 
1 140 -72 0 
1 -30 -54 0 
1 68 121 0 
1 171 -168 0 
1 -100 10 0 
1 2 -145 0 
1 -122 -123 0 
1 -19 116 0 
1 75 -182 0 
1 -38 120 0 
1 -56 31 0 
1 39 173 0 
1 -15 -87 0 
1 119 175 0 
1 -112 -124 0 
1 -178 -32 0 
1 -135 -160 0 
1 27 6 0 
1 173 144 0 
1 -4 139 0 
1 -82 28 0 
1 -86 55 0 
1 -23 -101 0 
1 -37 -73 0 
1 170 -50 0 
1 -16 -128 0 
1 32 -67 0 
1 81 -157 0 
1 -28 91 0 
1 -171 -1 0 
1 -79 -42 0 
1 -45 17 0 
1 -182 -123 0 
1 183 167 0 
1 22 -101 0 
1 97 -123 0 
1 13 -46 0 
1 -141 85 0 
1 131 -73 0 
1 160 100 0 
1 26 -68 0 
1 -114 -83 0 
1 -52 -107 0 
1 -22 -149 0 
1 98 -125 0 
1 -113 -162 0 
1 -115 -178 0 
1 49 109 0 
1 9 74 0 
1 -67 -109 0 
1 -69 74 0 
1 135 86 0 
1 -49 14 0 
1 22 -111 0 
1 131 55 0 
1 -83 -4 0 
1 -142 -66 0 
1 85 -19 0 
1 -129 -9 0 
1 -89 -65 0 
1 -171 -79 0 
1 95 2 0 
1 61 -96 0 
1 161 -156 0 
1 -38 -18 0 
1 4 -22 0 
1 -69 46 0 
1 172 -10 0 
1 99 -183 0 
1 -24 108 0 
1 115 -93 0 
1 131 154 0 
1 -18 119 0 
1 -64 -176 0 
1 178 -78 0 
1 181 -6 0 
1 54 31 0 
1 -31 -132 0 
1 28 2 0 
1 128 39 0 
1 141 90 0 
1 -47 114 0 
1 34 -48 0 
1 -180 3 0 
1 130 64 0 
1 94 72 0 
1 29 117 0 
1 41 -80 0 
1 93 32 0 
1 -11 -116 0 
1 -128 -71 0 
1 -157 -31 0 
1 -81 -82 0 
1 -58 -9 0 
1 59 -84 0 
1 -28 -136 0 
1 -88 -19 0 
1 88 -66 0 
1 -153 -94 0 
1 -37 -71 0 
1 -150 -137 0 
1 -131 -13 0 
1 72 153 0 
1 -121 101 0 
1 72 160 0 
1 142 109 0 
1 152 -165 0 
1 -31 -35 0 
1 -119 -146 0 
1 45 -155 0 
1 -27 -133 0 
1 52 -40 0 
1 34 -111 0 
